nN = 7;
nR = 15;
nH = 1;

a = [[10, 24, 21, 25, 20, 9, 16, 22, 8, 8, 8, 23, 23, 24, 13], [21, 7, 23, 15, 22, 9, 10, 14, 25, 15, 17, 11, 23, 18, 15], [8, 11, 7, 5, 8, 16, 13, 25, 5, 8, 18, 19, 7, 11, 19], [10, 19, 14, 23, 24, 12, 21, 20, 12, 5, 10, 5, 18, 14, 8], [19, 24, 17, 19, 17, 7, 18, 23, 10, 12, 16, 10, 25, 12, 18], [19, 24, 22, 19, 18, 10, 12, 23, 5, 8, 7, 22, 8, 23, 5], [6, 11, 7, 16, 17, 16, 22, 19, 6, 19, 16, 15, 23, 16, 11]];
c = [[[0, 0, 0, 0, 0, 0, 0, 0, 0, 0, 0, 0, 0, 0, 0], [47, 41, 38, 41, 35, 39, 39, 46, 46, 42, 37, 50, 38, 48, 41], [43, 42, 38, 49, 44, 32, 33, 42, 42, 31, 34, 32, 33, 44, 31], [33, 34, 45, 47, 37, 41, 38, 36, 37, 37, 39, 32, 35, 33, 43], [44, 32, 43, 39, 38, 46, 49, 50, 30, 41, 47, 42, 30, 46, 50], [44, 50, 43, 40, 41, 31, 35, 30, 50, 37, 41, 50, 44, 38, 38], [47, 34, 44, 41, 35, 47, 46, 48, 49, 46, 31, 36, 31, 38, 47]], [[0, 0, 0, 0, 0, 0, 0, 0, 0, 0, 0, 0, 0, 0, 0], [0, 0, 0, 0, 0, 0, 0, 0, 0, 0, 0, 0, 0, 0, 0], [49, 45, 47, 41, 40, 39, 45, 41, 34, 31, 35, 41, 49, 34, 43], [33, 50, 39, 45, 49, 36, 41, 36, 45, 39, 38, 30, 31, 35, 37], [47, 45, 42, 32, 48, 36, 43, 30, 35, 44, 32, 41, 39, 48, 45], [45, 45, 35, 46, 47, 32, 47, 40, 35, 37, 31, 48, 36, 33, 38], [42, 45, 34, 43, 46, 48, 36, 43, 33, 38, 38, 45, 30, 39, 30]], [[0, 0, 0, 0, 0, 0, 0, 0, 0, 0, 0, 0, 0, 0, 0], [0, 0, 0, 0, 0, 0, 0, 0, 0, 0, 0, 0, 0, 0, 0], [0, 0, 0, 0, 0, 0, 0, 0, 0, 0, 0, 0, 0, 0, 0], [30, 31, 32, 40, 34, 46, 43, 48, 31, 34, 42, 41, 34, 40, 50], [40, 36, 40, 42, 37, 44, 36, 30, 34, 39, 42, 44, 37, 39, 35], [33, 37, 42, 44, 43, 50, 37, 31, 33, 43, 31, 35, 47, 43, 34], [49, 39, 33, 47, 41, 42, 36, 30, 49, 47, 37, 43, 33, 36, 48]], [[0, 0, 0, 0, 0, 0, 0, 0, 0, 0, 0, 0, 0, 0, 0], [0, 0, 0, 0, 0, 0, 0, 0, 0, 0, 0, 0, 0, 0, 0], [0, 0, 0, 0, 0, 0, 0, 0, 0, 0, 0, 0, 0, 0, 0], [0, 0, 0, 0, 0, 0, 0, 0, 0, 0, 0, 0, 0, 0, 0], [33, 45, 41, 39, 49, 50, 41, 47, 41, 33, 40, 45, 31, 45, 44], [48, 46, 50, 49, 30, 45, 30, 43, 41, 50, 31, 48, 45, 36, 41], [47, 48, 46, 32, 34, 35, 38, 31, 34, 31, 45, 37, 40, 41, 36]], [[0, 0, 0, 0, 0, 0, 0, 0, 0, 0, 0, 0, 0, 0, 0], [0, 0, 0, 0, 0, 0, 0, 0, 0, 0, 0, 0, 0, 0, 0], [0, 0, 0, 0, 0, 0, 0, 0, 0, 0, 0, 0, 0, 0, 0], [0, 0, 0, 0, 0, 0, 0, 0, 0, 0, 0, 0, 0, 0, 0], [0, 0, 0, 0, 0, 0, 0, 0, 0, 0, 0, 0, 0, 0, 0], [40, 47, 32, 31, 35, 37, 34, 44, 41, 41, 49, 50, 34, 31, 50], [42, 31, 40, 45, 48, 47, 33, 50, 35, 44, 48, 45, 30, 40, 41]], [[0, 0, 0, 0, 0, 0, 0, 0, 0, 0, 0, 0, 0, 0, 0], [0, 0, 0, 0, 0, 0, 0, 0, 0, 0, 0, 0, 0, 0, 0], [0, 0, 0, 0, 0, 0, 0, 0, 0, 0, 0, 0, 0, 0, 0], [0, 0, 0, 0, 0, 0, 0, 0, 0, 0, 0, 0, 0, 0, 0], [0, 0, 0, 0, 0, 0, 0, 0, 0, 0, 0, 0, 0, 0, 0], [0, 0, 0, 0, 0, 0, 0, 0, 0, 0, 0, 0, 0, 0, 0], [38, 40, 41, 32, 41, 31, 46, 31, 45, 43, 47, 45, 47, 42, 32]], [[0, 0, 0, 0, 0, 0, 0, 0, 0, 0, 0, 0, 0, 0, 0], [0, 0, 0, 0, 0, 0, 0, 0, 0, 0, 0, 0, 0, 0, 0], [0, 0, 0, 0, 0, 0, 0, 0, 0, 0, 0, 0, 0, 0, 0], [0, 0, 0, 0, 0, 0, 0, 0, 0, 0, 0, 0, 0, 0, 0], [0, 0, 0, 0, 0, 0, 0, 0, 0, 0, 0, 0, 0, 0, 0], [0, 0, 0, 0, 0, 0, 0, 0, 0, 0, 0, 0, 0, 0, 0], [0, 0, 0, 0, 0, 0, 0, 0, 0, 0, 0, 0, 0, 0, 0]]];
Q = [[22], [23], [22], [24], [25], [29], [31]];

q = [[[16], [12], [11], [7], [8], [16], [10], [5], [15], [13], [25], [24], [9], [9], [12]], [[10], [10], [12], [20], [6], [8], [14], [15], [12], [11], [18], [24], [11], [19], [10]], [[18], [15], [21], [7], [14], [6], [10], [13], [20], [16], [9], [5], [8], [19], [9]], [[12], [6], [5], [5], [16], [25], [14], [9], [20], [12], [17], [23], [11], [18], [11]], [[15], [9], [24], [17], [23], [12], [18], [15], [10], [9], [12], [9], [5], [15], [18]], [[5], [24], [14], [7], [9], [13], [13], [18], [20], [24], [15], [25], [23], [19], [23]], [[13], [21], [12], [19], [22], [17], [13], [24], [18], [5], [24], [20], [19], [21], [16]]];
p = [0.94, 0.29, 0.42, 0.86, 0.19, 0.99, 0.3, 0.78, 0.67, 0.44, 0.87, 0.8, 0.09, 0.3, 0.87];
